;symbolic execution tree
(push)
(assert (le x0 java.lang.Object))
(check-sat)
(push)
(assert (le x1 java.lang.Object))
(check-sat)
(push)
(assert (le x0 java.util.Set))
(check-sat)
(push)
(assert (le x1 siena.HierarchicalDispatcher))
(check-sat)
(push)
(assert (le x0 java.util.Set))
(check-sat)
(push)
(assert (le x1 siena.HierarchicalDispatcher))
(check-sat)
(push)
(assert (le x1 siena.HierarchicalDispatcher))
(check-sat)
(pop)
(push)
(assert (not (le x1 siena.HierarchicalDispatcher)))
(check-sat)
(pop)
(pop)
(push)
(assert (not (le x1 siena.HierarchicalDispatcher)))
(check-sat)
(pop)
(pop)
(push)
(assert (not (le x0 java.util.Set)))
(check-sat)
(pop)
(push)
(assert (le x1 siena.HierarchicalDispatcher))
(check-sat)
(pop)
(push)
(assert (not (le x1 siena.HierarchicalDispatcher)))
(check-sat)
(pop)
(push)
(assert (le x1 siena.HierarchicalDispatcher))
(check-sat)
(push)
(assert (le x0 java.util.Set))
(check-sat)
(pop)
(push)
(assert (not (le x0 java.util.Set)))
(check-sat)
(pop)
(push)
(assert (le x0 java.util.Set))
(check-sat)
(pop)
(push)
(assert (not (le x0 java.util.Set)))
(check-sat)
(push)
(assert (le x0 java.util.Set))
(check-sat)
(pop)
(push)
(assert (not (le x0 java.util.Set)))
(check-sat)
(pop)
(pop)
(pop)
(push)
(assert (not (le x1 siena.HierarchicalDispatcher)))
(check-sat)
(pop)
(pop)
(push)
(assert (not (le x1 siena.HierarchicalDispatcher)))
(check-sat)
(pop)
(push)
(assert (le x0 java.util.Set))
(check-sat)
(push)
(assert (le x1 siena.ByteBuf))
(check-sat)
(pop)
(push)
(assert (not (le x1 siena.ByteBuf)))
(check-sat)
(push)
(assert (le x0 java.util.Set))
(check-sat)
(pop)
(push)
(assert (not (le x0 java.util.Set)))
(check-sat)
(pop)
(pop)
(push)
(assert (= x1 java.lang.String))
(check-sat)
(push)
(assert (= x1 java.lang.String))
(check-sat)
(pop)
(push)
(assert (not (= x1 java.lang.String)))
(check-sat)
(pop)
(pop)
(push)
(assert (not (= x1 java.lang.String)))
(check-sat)
(pop)
(pop)
(push)
(assert (not (le x0 java.util.Set)))
(check-sat)
(push)
(assert (le x1 siena.Event))
(check-sat)
(pop)
(push)
(assert (not (le x1 siena.Event)))
(check-sat)
(pop)
(push)
(assert (le x0 java.util.Set))
(check-sat)
(push)
(assert (le x0 java.util.Set))
(check-sat)
(push)
(assert (le x1 siena.Poset))
(check-sat)
(pop)
(push)
(assert (not (le x1 siena.Poset)))
(check-sat)
(pop)
(pop)
(push)
(assert (not (le x0 java.util.Set)))
(check-sat)
(pop)
(push)
(assert (= x1 java.lang.Integer))
(check-sat)
(pop)
(push)
(assert (not (= x1 java.lang.Integer)))
(check-sat)
(push)
(assert (le x0 java.util.Set))
(check-sat)
(pop)
(push)
(assert (not (le x0 java.util.Set)))
(check-sat)
(pop)
(push)
(assert (= x1 java.lang.Integer))
(check-sat)
(pop)
(push)
(assert (not (= x1 java.lang.Integer)))
(check-sat)
(pop)
(push)
(assert (= x1 java.lang.Integer))
(check-sat)
(pop)
(push)
(assert (not (= x1 java.lang.Integer)))
(check-sat)
(pop)
(pop)
(push)
(assert (le x0 java.util.Set))
(check-sat)
(pop)
(push)
(assert (not (le x0 java.util.Set)))
(check-sat)
(pop)
(push)
(assert (= x1 java.lang.StringBuilder))
(check-sat)
(pop)
(push)
(assert (not (= x1 java.lang.StringBuilder)))
(check-sat)
(pop)
(push)
(assert (le x0 java.util.Set))
(check-sat)
(pop)
(push)
(assert (not (le x0 java.util.Set)))
(check-sat)
(pop)
(push)
(assert (le x1 siena.AttributeValue))
(check-sat)
(pop)
(push)
(assert (not (le x1 siena.AttributeValue)))
(check-sat)
(push)
(assert (le x1 siena.AttributeValue))
(check-sat)
(pop)
(push)
(assert (not (le x1 siena.AttributeValue)))
(check-sat)
(pop)
(pop)
(pop)
(push)
(assert (not (le x0 java.util.Set)))
(check-sat)
(pop)
(push)
(assert (le x1 siena.HierarchicalDispatcher))
(check-sat)
(push)
(assert (le x1 siena.HierarchicalDispatcher))
(check-sat)
(pop)
(push)
(assert (not (le x1 siena.HierarchicalDispatcher)))
(check-sat)
(pop)
(push)
(assert (le x1 siena.HierarchicalDispatcher))
(check-sat)
(push)
(assert (le x1 siena.HierarchicalDispatcher))
(check-sat)
(pop)
(push)
(assert (not (le x1 siena.HierarchicalDispatcher)))
(check-sat)
(pop)
(pop)
(push)
(assert (not (le x1 siena.HierarchicalDispatcher)))
(check-sat)
(pop)
(push)
(assert (le x1 siena.HierarchicalDispatcher))
(check-sat)
(push)
(assert (le x0 java.util.Set))
(check-sat)
(pop)
(push)
(assert (not (le x0 java.util.Set)))
(check-sat)
(pop)
(pop)
(push)
(assert (not (le x1 siena.HierarchicalDispatcher)))
(check-sat)
(pop)
(push)
(assert (le x1 siena.HierarchicalDispatcher))
(check-sat)
(push)
(assert (le x1 siena.HierarchicalDispatcher))
(check-sat)
(pop)
(push)
(assert (not (le x1 siena.HierarchicalDispatcher)))
(check-sat)
(pop)
(pop)
(push)
(assert (not (le x1 siena.HierarchicalDispatcher)))
(check-sat)
(pop)
(pop)
(push)
(assert (not (le x1 siena.HierarchicalDispatcher)))
(check-sat)
(pop)
(push)
(assert (le x1 siena.Poset))
(check-sat)
(push)
(assert (le x0 java.util.Set))
(check-sat)
(pop)
(push)
(assert (not (le x0 java.util.Set)))
(check-sat)
(push)
(assert (le x1 siena.Poset))
(check-sat)
(pop)
(push)
(assert (not (le x1 siena.Poset)))
(check-sat)
(pop)
(pop)
(pop)
(push)
(assert (not (le x1 siena.Poset)))
(check-sat)
(push)
(assert (le x1 siena.Poset))
(check-sat)
(pop)
(push)
(assert (not (le x1 siena.Poset)))
(check-sat)
(push)
(assert (le x1 siena.Poset))
(check-sat)
(pop)
(push)
(assert (not (le x1 siena.Poset)))
(check-sat)
(pop)
(pop)
(push)
(assert (le x1 siena.Poset))
(check-sat)
(pop)
(push)
(assert (not (le x1 siena.Poset)))
(check-sat)
(pop)
(pop)
(pop)
(pop)
(push)
(assert (not (le x0 java.util.Set)))
(check-sat)
(push)
(assert (le x0 java.util.Set))
(check-sat)
(pop)
(push)
(assert (not (le x0 java.util.Set)))
(check-sat)
(push)
(assert (le x0 java.util.Set))
(check-sat)
(push)
(assert (le x1 siena.AttributeValue))
(check-sat)
(pop)
(push)
(assert (not (le x1 siena.AttributeValue)))
(check-sat)
(push)
(assert (le x0 java.util.Set))
(check-sat)
(pop)
(push)
(assert (not (le x0 java.util.Set)))
(check-sat)
(pop)
(pop)
(pop)
(push)
(assert (not (le x0 java.util.Set)))
(check-sat)
(pop)
(push)
(assert (le x1 java.util.Set))
(check-sat)
(pop)
(push)
(assert (not (le x1 java.util.Set)))
(check-sat)
(pop)
(pop)
(push)
(assert (= x1 java.lang.String))
(check-sat)
(pop)
(push)
(assert (not (= x1 java.lang.String)))
(check-sat)
(pop)
(push)
(assert (= x1 java.lang.String))
(check-sat)
(push)
(assert (le x0 java.util.Set))
(check-sat)
(push)
(assert (= x1 java.lang.String))
(check-sat)
(pop)
(push)
(assert (not (= x1 java.lang.String)))
(check-sat)
(pop)
(pop)
(push)
(assert (not (le x0 java.util.Set)))
(check-sat)
(pop)
(pop)
(push)
(assert (not (= x1 java.lang.String)))
(check-sat)
(pop)
(push)
(assert (le x1 siena.AttributeValue))
(check-sat)
(push)
(assert (le x1 siena.AttributeValue))
(check-sat)
(pop)
(push)
(assert (not (le x1 siena.AttributeValue)))
(check-sat)
(pop)
(push)
(assert (le x0 java.util.Set))
(check-sat)
(push)
(assert (le x1 siena.AttributeValue))
(check-sat)
(pop)
(push)
(assert (not (le x1 siena.AttributeValue)))
(check-sat)
(pop)
(push)
(assert (le x1 siena.AttributeValue))
(check-sat)
(pop)
(push)
(assert (not (le x1 siena.AttributeValue)))
(check-sat)
(pop)
(push)
(assert (le x1 siena.AttributeValue))
(check-sat)
(pop)
(push)
(assert (not (le x1 siena.AttributeValue)))
(check-sat)
(pop)
(pop)
(push)
(assert (not (le x0 java.util.Set)))
(check-sat)
(pop)
(push)
(assert (le x1 siena.AttributeValue))
(check-sat)
(pop)
(push)
(assert (not (le x1 siena.AttributeValue)))
(check-sat)
(pop)
(pop)
(push)
(assert (not (le x1 siena.AttributeValue)))
(check-sat)
(push)
(assert (le x1 siena.AttributeValue))
(check-sat)
(pop)
(push)
(assert (not (le x1 siena.AttributeValue)))
(check-sat)
(push)
(assert (le x1 siena.AttributeValue))
(check-sat)
(pop)
(push)
(assert (not (le x1 siena.AttributeValue)))
(check-sat)
(pop)
(push)
(assert (le x1 siena.AttributeValue))
(check-sat)
(pop)
(push)
(assert (not (le x1 siena.AttributeValue)))
(check-sat)
(pop)
(pop)
(push)
(assert (le x1 siena.AttributeValue))
(check-sat)
(pop)
(push)
(assert (not (le x1 siena.AttributeValue)))
(check-sat)
(pop)
(push)
(assert (le x0 java.util.Set))
(check-sat)
(push)
(assert (le x0 java.util.Set))
(check-sat)
(pop)
(push)
(assert (not (le x0 java.util.Set)))
(check-sat)
(pop)
(pop)
(push)
(assert (not (le x0 java.util.Set)))
(check-sat)
(pop)
(push)
(assert (le x0 java.util.Set))
(check-sat)
(push)
(assert (le x1 siena.AttributeValue))
(check-sat)
(pop)
(push)
(assert (not (le x1 siena.AttributeValue)))
(check-sat)
(pop)
(pop)
(push)
(assert (not (le x0 java.util.Set)))
(check-sat)
(pop)
(push)
(assert (le x1 siena.AttributeValue))
(check-sat)
(pop)
(push)
(assert (not (le x1 siena.AttributeValue)))
(check-sat)
(pop)
(push)
(assert (le x1 siena.AttributeValue))
(check-sat)
(pop)
(push)
(assert (not (le x1 siena.AttributeValue)))
(check-sat)
(push)
(assert (le x0 java.util.Set))
(check-sat)
(pop)
(push)
(assert (not (le x0 java.util.Set)))
(check-sat)
(pop)
(pop)
(push)
(assert (le x1 siena.AttributeValue))
(check-sat)
(pop)
(push)
(assert (not (le x1 siena.AttributeValue)))
(check-sat)
(pop)
(pop)
(push)
(assert (= x1 java.lang.String))
(check-sat)
(push)
(assert (= x1 java.lang.String))
(check-sat)
(pop)
(push)
(assert (not (= x1 java.lang.String)))
(check-sat)
(pop)
(push)
(assert (le x0 java.util.Set))
(check-sat)
(push)
(assert (le x0 java.util.Set))
(check-sat)
(pop)
(push)
(assert (not (le x0 java.util.Set)))
(check-sat)
(pop)
(pop)
(push)
(assert (not (le x0 java.util.Set)))
(check-sat)
(pop)
(push)
(assert (= x1 java.lang.String))
(check-sat)
(pop)
(push)
(assert (not (= x1 java.lang.String)))
(check-sat)
(pop)
(push)
(assert (= x1 java.lang.String))
(check-sat)
(push)
(assert (le x0 java.util.Set))
(check-sat)
(push)
(assert (= x1 java.lang.String))
(check-sat)
(pop)
(push)
(assert (not (= x1 java.lang.String)))
(check-sat)
(pop)
(pop)
(push)
(assert (not (le x0 java.util.Set)))
(check-sat)
(pop)
(push)
(assert (le x0 java.util.Set))
(check-sat)
(pop)
(push)
(assert (not (le x0 java.util.Set)))
(check-sat)
(pop)
(pop)
(push)
(assert (not (= x1 java.lang.String)))
(check-sat)
(pop)
(pop)
(push)
(assert (not (= x1 java.lang.String)))
(check-sat)
(push)
(assert (le x0 java.util.Set))
(check-sat)
(pop)
(push)
(assert (not (le x0 java.util.Set)))
(check-sat)
(pop)
(pop)
(push)
(assert (le x1 java.io.PrintStream))
(check-sat)
(pop)
(push)
(assert (not (le x1 java.io.PrintStream)))
(check-sat)
(pop)
(push)
(assert (le x0 java.util.Set))
(check-sat)
(push)
(assert (le x1 siena.Notifiable))
(check-sat)
(push)
(assert (le x1 siena.Notifiable))
(check-sat)
(pop)
(push)
(assert (not (le x1 siena.Notifiable)))
(check-sat)
(push)
(assert (le x1 siena.Notifiable))
(check-sat)
(pop)
(push)
(assert (not (le x1 siena.Notifiable)))
(check-sat)
(pop)
(pop)
(push)
(assert (le x0 java.util.Set))
(check-sat)
(pop)
(push)
(assert (not (le x0 java.util.Set)))
(check-sat)
(pop)
(push)
(assert (le x1 siena.Notifiable))
(check-sat)
(pop)
(push)
(assert (not (le x1 siena.Notifiable)))
(check-sat)
(push)
(assert (le x0 java.util.Set))
(check-sat)
(pop)
(push)
(assert (not (le x0 java.util.Set)))
(check-sat)
(pop)
(pop)
(push)
(assert (le x0 java.util.Set))
(check-sat)
(pop)
(push)
(assert (not (le x0 java.util.Set)))
(check-sat)
(pop)
(push)
(assert (le x0 java.util.Set))
(check-sat)
(push)
(assert (le x0 java.util.Set))
(check-sat)
(pop)
(push)
(assert (not (le x0 java.util.Set)))
(check-sat)
(pop)
(pop)
(push)
(assert (not (le x0 java.util.Set)))
(check-sat)
(pop)
(push)
(assert (le x1 siena.Notifiable))
(check-sat)
(pop)
(push)
(assert (not (le x1 siena.Notifiable)))
(check-sat)
(pop)
(pop)
(push)
(assert (not (le x1 siena.Notifiable)))
(check-sat)
(push)
(assert (le x0 java.util.Set))
(check-sat)
(push)
(assert (le x1 siena.Notifiable))
(check-sat)
(pop)
(push)
(assert (not (le x1 siena.Notifiable)))
(check-sat)
(pop)
(pop)
(push)
(assert (not (le x0 java.util.Set)))
(check-sat)
(pop)
(push)
(assert (le x1 siena.Notifiable))
(check-sat)
(pop)
(push)
(assert (not (le x1 siena.Notifiable)))
(check-sat)
(pop)
(push)
(assert (le x1 siena.Notifiable))
(check-sat)
(push)
(assert (le x0 java.util.Set))
(check-sat)
(pop)
(push)
(assert (not (le x0 java.util.Set)))
(check-sat)
(pop)
(pop)
(push)
(assert (not (le x1 siena.Notifiable)))
(check-sat)
(pop)
(push)
(assert (le x0 java.util.Set))
(check-sat)
(pop)
(push)
(assert (not (le x0 java.util.Set)))
(check-sat)
(pop)
(pop)
(push)
(assert (= x1 java.lang.String))
(check-sat)
(pop)
(push)
(assert (not (= x1 java.lang.String)))
(check-sat)
(pop)
(pop)
(push)
(assert (not (le x0 java.util.Set)))
(check-sat)
(push)
(assert (le x1 java.io.PrintStream))
(check-sat)
(push)
(assert (le x0 java.util.Set))
(check-sat)
(pop)
(push)
(assert (not (le x0 java.util.Set)))
(check-sat)
(pop)
(pop)
(push)
(assert (not (le x1 java.io.PrintStream)))
(check-sat)
(pop)
(pop)
(push)
(assert (le x1 siena.Tokenizer))
(check-sat)
(pop)
(push)
(assert (not (le x1 siena.Tokenizer)))
(check-sat)
(push)
(assert (le x0 java.util.Set))
(check-sat)
(push)
(assert (le x0 java.util.Set))
(check-sat)
(pop)
(push)
(assert (not (le x0 java.util.Set)))
(check-sat)
(push)
(assert (le x0 java.util.Set))
(check-sat)
(pop)
(push)
(assert (not (le x0 java.util.Set)))
(check-sat)
(pop)
(pop)
(pop)
(push)
(assert (not (le x0 java.util.Set)))
(check-sat)
(pop)
(pop)
(push)
(assert (le x0 java.util.Set))
(check-sat)
(push)
(assert (le x0 java.util.Set))
(check-sat)
(push)
(assert (le x1 siena.HierarchicalDispatcher))
(check-sat)
(push)
(assert (le x1 siena.HierarchicalDispatcher))
(check-sat)
(pop)
(push)
(assert (not (le x1 siena.HierarchicalDispatcher)))
(check-sat)
(pop)
(pop)
(push)
(assert (not (le x1 siena.HierarchicalDispatcher)))
(check-sat)
(pop)
(push)
(assert (le x0 java.util.Set))
(check-sat)
(push)
(assert (le x0 java.util.Set))
(check-sat)
(pop)
(push)
(assert (not (le x0 java.util.Set)))
(check-sat)
(pop)
(pop)
(push)
(assert (not (le x0 java.util.Set)))
(check-sat)
(pop)
(pop)
(push)
(assert (not (le x0 java.util.Set)))
(check-sat)
(pop)
(pop)
(push)
(assert (not (le x0 java.util.Set)))
(check-sat)
(pop)
(push)
(assert (le x1 siena.Notifiable))
(check-sat)
(pop)
(push)
(assert (not (le x1 siena.Notifiable)))
(check-sat)
(pop)
(push)
(assert (le x0 java.util.Set))
(check-sat)
(push)
(assert (= x1 java.lang.String))
(check-sat)
(push)
(assert (le x0 java.util.Set))
(check-sat)
(pop)
(push)
(assert (not (le x0 java.util.Set)))
(check-sat)
(push)
(assert (le x0 java.util.Set))
(check-sat)
(pop)
(push)
(assert (not (le x0 java.util.Set)))
(check-sat)
(pop)
(pop)
(pop)
(push)
(assert (not (= x1 java.lang.String)))
(check-sat)
(pop)
(push)
(assert (le x0 java.util.Set))
(check-sat)
(pop)
(push)
(assert (not (le x0 java.util.Set)))
(check-sat)
(pop)
(pop)
(push)
(assert (not (le x0 java.util.Set)))
(check-sat)
(push)
(assert (le x1 siena.AttributeValue))
(check-sat)
(pop)
(push)
(assert (not (le x1 siena.AttributeValue)))
(check-sat)
(pop)
(push)
(assert (le x0 java.util.Set))
(check-sat)
(push)
(assert (= x1 java.lang.Integer))
(check-sat)
(push)
(assert (le x0 java.util.Set))
(check-sat)
(pop)
(push)
(assert (not (le x0 java.util.Set)))
(check-sat)
(pop)
(pop)
(push)
(assert (not (= x1 java.lang.Integer)))
(check-sat)
(push)
(assert (= x1 java.lang.Integer))
(check-sat)
(pop)
(push)
(assert (not (= x1 java.lang.Integer)))
(check-sat)
(pop)
(pop)
(push)
(assert (le x1 java.util.Set))
(check-sat)
(pop)
(push)
(assert (not (le x1 java.util.Set)))
(check-sat)
(pop)
(push)
(assert (le x0 java.util.Set))
(check-sat)
(pop)
(push)
(assert (not (le x0 java.util.Set)))
(check-sat)
(pop)
(pop)
(push)
(assert (not (le x0 java.util.Set)))
(check-sat)
(pop)
(push)
(assert (le x0 java.util.Set))
(check-sat)
(pop)
(push)
(assert (not (le x0 java.util.Set)))
(check-sat)
(pop)
(push)
(assert (le x1 siena.Filter))
(check-sat)
(push)
(assert (le x1 siena.Filter))
(check-sat)
(pop)
(push)
(assert (not (le x1 siena.Filter)))
(check-sat)
(pop)
(pop)
(push)
(assert (not (le x1 siena.Filter)))
(check-sat)
(pop)
(push)
(assert (le x1 siena.AttributeConstraint))
(check-sat)
(pop)
(push)
(assert (not (le x1 siena.AttributeConstraint)))
(check-sat)
(push)
(assert (le x1 siena.AttributeConstraint))
(check-sat)
(pop)
(push)
(assert (not (le x1 siena.AttributeConstraint)))
(check-sat)
(pop)
(pop)
(pop)
(push)
(assert (= x1 java.lang.StringBuilder))
(check-sat)
(pop)
(push)
(assert (not (= x1 java.lang.StringBuilder)))
(check-sat)
(push)
(assert (le x0 java.util.Set))
(check-sat)
(push)
(assert (le x0 java.util.Set))
(check-sat)
(pop)
(push)
(assert (not (le x0 java.util.Set)))
(check-sat)
(pop)
(pop)
(push)
(assert (not (le x0 java.util.Set)))
(check-sat)
(pop)
(push)
(assert (= x1 java.lang.StringBuilder))
(check-sat)
(pop)
(push)
(assert (not (= x1 java.lang.StringBuilder)))
(check-sat)
(pop)
(pop)
(push)
(assert (le x1 java.net.ServerSocket))
(check-sat)
(push)
(assert (le x1 java.net.ServerSocket))
(check-sat)
(pop)
(push)
(assert (not (le x1 java.net.ServerSocket)))
(check-sat)
(pop)
(push)
(assert (le x1 java.net.ServerSocket))
(check-sat)
(pop)
(push)
(assert (not (le x1 java.net.ServerSocket)))
(check-sat)
(pop)
(push)
(assert (le x0 java.util.Set))
(check-sat)
(push)
(assert (le x1 java.net.ServerSocket))
(check-sat)
(pop)
(push)
(assert (not (le x1 java.net.ServerSocket)))
(check-sat)
(pop)
(pop)
(push)
(assert (not (le x0 java.util.Set)))
(check-sat)
(pop)
(pop)
(push)
(assert (not (le x1 java.net.ServerSocket)))
(check-sat)
(push)
(assert (le x0 java.util.Set))
(check-sat)
(push)
(assert (le x1 java.net.ServerSocket))
(check-sat)
(pop)
(push)
(assert (not (le x1 java.net.ServerSocket)))
(check-sat)
(pop)
(push)
(assert (le x1 java.net.ServerSocket))
(check-sat)
(pop)
(push)
(assert (not (le x1 java.net.ServerSocket)))
(check-sat)
(pop)
(push)
(assert (le x1 java.net.ServerSocket))
(check-sat)
(pop)
(push)
(assert (not (le x1 java.net.ServerSocket)))
(check-sat)
(pop)
(push)
(assert (le x1 java.net.ServerSocket))
(check-sat)
(pop)
(push)
(assert (not (le x1 java.net.ServerSocket)))
(check-sat)
(pop)
(push)
(assert (le x1 java.net.ServerSocket))
(check-sat)
(pop)
(push)
(assert (not (le x1 java.net.ServerSocket)))
(check-sat)
(push)
(assert (le x0 java.util.Set))
(check-sat)
(pop)
(push)
(assert (not (le x0 java.util.Set)))
(check-sat)
(pop)
(pop)
(pop)
(push)
(assert (not (le x0 java.util.Set)))
(check-sat)
(push)
(assert (le x1 java.net.ServerSocket))
(check-sat)
(pop)
(push)
(assert (not (le x1 java.net.ServerSocket)))
(check-sat)
(push)
(assert (le x1 java.net.ServerSocket))
(check-sat)
(pop)
(push)
(assert (not (le x1 java.net.ServerSocket)))
(check-sat)
(pop)
(pop)
(pop)
(pop)
(pop)
